# Solution for model PD-Stages
# Objective value = 3.2500182351096214e+01
zigjg[101,102,4] 1
zigjg[101,203,4] 0
zigjg[101,303,4] 0
zigjg[102,101,4] -2.3314683517128287e-14
zigjg[102,203,4] 0
zigjg[102,303,4] 1.0000000000000233e+00
zigjg[203,101,4] 1.0000000000000233e+00
zigjg[203,102,4] 0
zigjg[203,303,4] -2.3314683517128287e-14
zigjg[303,101,4] 0
zigjg[303,102,4] 0
zigjg[303,203,4] 1
sig[101,4] 0
sig[102,4] 1
sig[203,4] 3
sig[303,4] 2
digjg[101,102,4] 0
digjg[101,203,4] 10000
digjg[101,303,4] 10000
digjg[102,101,4] 10000
digjg[102,203,4] 10000
digjg[102,303,4] 0
digjg[203,101,4] 0
digjg[203,102,4] 10000
digjg[203,303,4] 10000
digjg[303,101,4] 10000
digjg[303,102,4] 10000
digjg[303,203,4] 0
difigjg[101,102,4,0] 0
difigjg[101,102,4,1] 0
difigjg[101,203,4,0] 6.7987232170853744e+00
difigjg[101,203,4,1] 4.9944366869549430e+00
difigjg[101,303,4,0] 4.9442765959793178e-01
difigjg[101,303,4,1] 7.6585616499340450e+00
difigjg[102,101,4,0] 1.0420340326888834e+01
difigjg[102,101,4,1] 8.9800136882462613e+00
difigjg[102,203,4,0] 7.2931508766827893e+00
difigjg[102,203,4,1] 2.6641249629797130e+00
difigjg[102,303,4,0] 0
difigjg[102,303,4,1] 0
difigjg[203,101,4,0] 0
difigjg[203,101,4,1] 0
difigjg[203,102,4,0] 9.9259126672922644e+00
difigjg[203,102,4,1] 1.3214520383116906e+00
difigjg[203,303,4,0] 1.0420340326888718e+01
difigjg[203,303,4,1] 8.9800136882462382e+00
difigjg[303,101,4,0] 3.1271894502042064e+00
difigjg[303,101,4,1] 6.3158887252665767e+00
difigjg[303,102,4,0] 6.7987232170863194e+00
difigjg[303,102,4,1] 4.9944366869542876e+00
difigjg[303,203,4,0] 0
difigjg[303,203,4,1] 0
pigjg[101,102,4] 0
pigjg[101,203,4] 0
pigjg[101,303,4] 0
pigjg[102,101,4] 0
pigjg[102,203,4] 0
pigjg[102,303,4] 0
pigjg[203,101,4] 0
pigjg[203,102,4] 0
pigjg[203,303,4] 0
pigjg[303,101,4] 0
pigjg[303,102,4] 0
pigjg[303,203,4] 0
Rig[101,4,0] 1.0000000000000010e+02
Rig[101,4,1] 1.1116930921746272e+01
Rig[102,4,0] 9.0074087332707734e+01
Rig[102,4,1] 1.2438382960058561e+01
Rig[203,4,0] 9.6872810549794067e+01
Rig[203,4,1] 1.7432819647012820e+01
Rig[303,4,0] 8.9579659673111280e+01
Rig[303,4,1] 2.0096944609992512e+01
rhoig[101,4] -8.8817841970012523e-15
rhoig[102,4] 0.999999999999964
rhoig[203,4] 8.43769498715119e-15
rhoig[303,4] 1
Lig[101,4,0] 9.0074087332707663e+01
Lig[101,4,1] 1.2438382960058467e+01
Lig[102,4,0] 8.9579659673111280e+01
Lig[102,4,1] 2.0096944609992534e+01
Lig[203,4,0] 100
Lig[203,4,1] 1.1116930921746274e+01
Lig[303,4,0] 9.6872810549794053e+01
Lig[303,4,1] 1.7432819647012849e+01
landaig[101,4] 1.0000000000000089e+00
landaig[102,4] -2.4424906541753444e-14
landaig[203,4] 1.0000000000000058e+00
landaig[303,4] -8.8817841970012523e-16
minig[101,4] 1.0000000000000095e+00
minig[102,4] 0
minig[203,4] 1
minig[303,4] 0
maxig[101,4] -9.5479180117763462e-15
maxig[102,4] 1
maxig[203,4] 0
maxig[303,4] 1
entryig[101,4] 1.0000000000000095e+00
entryig[102,4] 0
entryig[203,4] 1
entryig[303,4] 0
muig[101,4] 1
muig[102,4] 1
muig[203,4] 1
muig[303,4] 1
pig[101,4] 1
pig[102,4] 1
pig[203,4] 1
pig[303,4] 1
alphaig[101,4] 1
alphaig[102,4] 1
alphaig[203,4] 1
alphaig[303,4] 1
